c SaDiCaL SAT Solver
c Copyright (C) 2018 by Armin Biere JKU
c
c Version 00n 481e664a7ffa9a307d3a0dad517daf5dde1989ef
c Compiler Apple clang version 15.0.0 (clang-1500.3.9.4)
c Options gcc -Wall -O3 -DNDEBUG -DNLOG
c proof path 'tests/ph5.prf'
c
c all options have default values
c
c parsing 'tests/ph5.cnf'
c found 'p cnf 30 81' header
c parsed DIMACS in 0.00 seconds
c 
c
c   time      reduced redundant irredundant
c       space  restarts glue    variables
c           level conflicts size  remaining
c
c s 0.00 0.0 0.8 0 1 7 0 1.8 1.8 76 29 97%
c s 0.00 0.0 2.3 0 9 35 0 3.3 3.3 72 28 93%
c s 0.00 0.0 3.8 0 38 223 30 4.8 4.9 67 27 90%
c s 0.00 0.0 3.5 0 39 304 33 4.5 4.7 62 26 87%
c s 0.00 0.0 3.3 0 40 380 35 4.3 4.6 57 25 83%
c s 0.00 0.0 3.1 0 41 449 35 4.1 4.5 53 24 80%
c s 0.00 0.0 3.1 0 41 480 11 4.1 4.4 48 23 77%
c s 0.00 0.0 3.0 0 41 488 8 4.0 4.4 45 22 73%
c s 0.00 0.0 2.9 0 41 505 9 3.9 4.3 41 21 70%
c s 0.00 0.0 2.8 0 41 525 8 3.8 4.2 38 20 67%
c s 0.00 0.0 2.7 0 41 540 9 3.7 4.1 35 19 63%
c s 0.00 0.0 2.6 0 42 553 8 3.6 4.0 31 18 60%
c s 0.00 0.0 2.6 0 42 558 8 3.6 4.0 29 17 57%
c s 0.00 0.0 2.4 0 42 565 7 3.4 3.8 27 15 50%
c s 0.00 0.0 2.4 0 42 568 5 3.3 3.7 25 14 47%
c s 0.00 0.0 2.3 0 42 569 4 3.3 3.7 22 13 43%
c s 0.00 0.0 2.3 0 42 570 4 3.3 3.7 18 12 40%
c s 0.00 0.0 2.2 0 42 571 2 3.2 3.6 9 6 20%
c 0 0.00 0.0 2.2 0 42 573 2 3.2 3.6 9 1 3%
c
s UNSATISFIABLE
c
c simplifications:            18          32  conflicts/simplification  100%
c reductions:                  0           0  conflicts/reduction       100%
c restarts:                   42          14  conflicts/restart         100%
c conflicts:                 573      116843  conflicts/sec              85%
c decisions:                 292       59543  decisions/sec              65%
c propagations:            10685         2.2  millions/sec               81%
c
c pure:                        0           0% of look-aheads
c look-ahead:                292         100% of outer decisions         65%
c pruned:                     72          13% of outer conflicts         11%
c generated reducts:         303          24% satisfiable
c average size:               28          41% of all clauses
c pruning failed:            231          76% per reduct
c filter checks:            2508          28% of outer satisfied clauses
c average filtered:          1.5           5% per reduct
c assumed literals:         3465         1.4  per filter check
c
c collected clauses:        0.01 MB       94% of allocated clauses        3%
c allocated clauses:        0.01 MB       12% of allocated memory         3%
c maximum heap:             0.02 MB        0% of resident set size       59%
c
c looking:                  0.00 sec       2% of process time
c filtering:                0.00 sec      16% of process time
c pruning:                  0.00 sec      64% of process time
c simplifying:              0.00 sec       1% of process time
c
c resident set size:     1104.00 MB
c total process time:       0.00 sec
